; faust :: corpus-study/repo_src/faust/faust/transport/consumer.py :: EVENT 'Consumer.can_resume_flow' :: structured encoding (verdict: unsat)
; Generated by snf-pipeline (encoder.py) -- run with any
; SMT-LIB2-compliant solver, e.g. `z3 faust__corpus-study_repo_src_faust_faust_transport_consumer.py__Consumer.can_resume_flow__structured.smt2`
; benchmark generated from python API
(set-info :status unknown)
(assert
 false)
(check-sat)
